Name:		mgval_0.50_2B
Optimal value:	284
#Vehicles:	3
Capacity:	120
Depot Node:	1
#Nodes:		24
#Edges:		12
#Arcs:		40
#Required N:	18
#Required E:	6
#Required A:	20

ReN.	DEMAND	S. COST
N2	6	6
N4	4	4
N5	4	4
N6	9	9
N7	2	2
N8	6	6
N10	20	20
N11	9	9
N13	6	6
N14	4	4
N16	14	14
N18	5	5
N19	18	18
N20	18	18
N21	4	4
N22	6	6
N23	8	8
N24	9	9

ReE.	FROM N.	TO N.	T. COST	DEMAND	S. COST
E7	13	14	1	4	4
E8	4	5	8	9	9
E9	14	18	2	5	5
E10	15	16	6	8	8
E11	10	20	4	14	14
E12	6	12	9	12	12

EDGE	FROM N.	TO N.	T. COST
NrE1	6	7	5
NrE2	16	17	3
NrE3	20	23	4
NrE4	20	21	5
NrE5	13	17	1
NrE6	11	15	3

ReA.	FROM N.	TO N.	T. COST	DEMAND	S. COST
A21	21	15	3	2	2
A22	9	10	8	6	6
A23	3	4	3	6	6
A24	11	5	5	4	4
A25	2	1	4	3	3
A26	12	16	8	4	4
A27	22	19	5	4	4
A28	12	11	4	4	4
A29	24	21	8	5	5
A30	1	3	5	8	8
A31	9	19	9	7	7
A32	11	10	11	7	7
A33	12	13	5	3	3
A34	15	21	3	2	2
A35	5	10	8	7	7
A36	19	9	9	8	8
A37	9	3	4	11	11
A38	23	22	9	7	7
A39	13	12	5	3	3
A40	17	18	7	5	5

ARC	FROM N.	TO N.	T. COST
NrA1	7	8	2
NrA2	18	17	7
NrA3	22	23	9
NrA4	21	24	8
NrA5	10	9	8
NrA6	8	14	3
NrA7	8	7	2
NrA8	19	20	9
NrA9	2	4	2
NrA10	1	2	4
NrA11	19	22	5
NrA12	5	11	5
NrA13	23	24	12
NrA14	11	12	4
NrA15	10	5	8
NrA16	16	12	8
NrA17	14	8	3
NrA18	10	11	11
NrA19	24	23	12
NrA20	4	2	2
